nPeces = 20;

durada = [15,25,5,45,45,5,30,45,30,20,25,5,5,30,5,50,30,35,45,5];

nInstruments = 4;

requereix = [| 3, 0, 2, 0, 
| 2, 2, 2, 2, 
| 1, 1, 1, 0, 
| 1, 3, 1, 1, 
| 3, 3, 2, 1, 
| 1, 0, 2, 2, 
| 1, 2, 3, 2, 
| 2, 0, 2, 2, 
| 2, 2, 3, 0, 
| 1, 1, 1, 2, 
| 2, 3, 2, 2, 
| 0, 2, 2, 2, 
| 3, 0, 0, 1, 
| 3, 1, 2, 1, 
| 0, 0, 2, 2, 
| 2, 3, 2, 1, 
| 0, 0, 3, 2, 
| 3, 1, 0, 1, 
| 0, 1, 3, 2, 
| 2, 0, 1, 1, 
|];

nMusics = 10;

saptocar = [| false, true, false, false, 
| false, true, false, false, 
| false, true, false, false, 
| false, true, true, false, 
| false, false, true, false, 
| true, false, true, false, 
| true, true, false, false, 
| false, false, false, true, 
| false, true, false, false, 
| true, true, false, true, 
|];

pressupost = 1440;

salari = [2,2,2,2,2,2,2,2,2,3];

nPrecs = 25;
pred = [1,2,2,2,3,4,4,4,5,6,7,7,7,8,9,10,10,11,12,12,13,14,15,16,17];
succ = [5,16,12,4,11,18,6,7,15,19,8,9,10,13,15,17,14,13,18,20,17,19,16,20,19];

